\ SCIP STATISTICS
\   Problem name     : CapacitatedFacilityLocation-20-10
\   Variables        : 210 (210 binary, 0 integer, 0 implicit integer, 0 continuous)
\   Constraints      : 231
Minimize
 Obj: +1240.32138465642 x0 +876.412548074751 x1 +1243.48135257154 x2 +1269.20891401712 x3 +1013.45632353155 x4
      +854.533238119236 x5 +505.248793297608 x6 +952.396147700684 x7 +1082.39181505554 x8 +1051.84898859778 x9
      +261.540874771162 x10 +43.6031413770295 x11 +120.27398171124 x12 +244.406579648906 x13 +285.371138268757 x14
      +63.2048650498597 x15 +76.2955368389091 x16 +263.538434391449 x17 +202.734106682523 x18 +255.791363466309 x19
      +77.5188482131825 x20 +182.405635592617 x21 +91.5729731206006 x22 +106.377120211507 x23 +74.0856018027779 x24
      +134.756934531822 x25 +160.089287269535 x26 +41.9404165941835 x27 +91.0710594472957 x28 +103.958404162292 x29
      +15.3598944470479 x30 +100.17948887276 x31 +80.1738887065482 x32 +8.82744448541657 x33 +33.6098148081538 x34
      +92.8254618735584 x35 +83.2282859972211 x36 +56.8566415706418 x37 +20.3949187378804 x38 +6.03429543570997 x39
      +27.3885331300736 x40 +73.4077357874011 x41 +48.4918430356262 x42 +28.6292946713343 x43 +38.1933424834878 x44
      +61.2704444623092 x45 +59.5259506859582 x46 +43.0551571918183 x47 +16.8963730510197 x48 +30.2080144520737 x49
      +84.0060889323316 x50 +73.9773709783581 x51 +34.6552130517588 x52 +91.6712921567973 x53 +82.2521167042333 x54
      +45.9054100915785 x55 +74.8678195359056 x56 +60.6695999770916 x57 +80.8828813743697 x58 +92.2191530523139 x59
      +46.4743994635464 x60 +291.148650261097 x61 +236.915900068601 x62 +22.8312148613238 x63 +97.3789985658937 x64
      +272.213662023106 x65 +242.728460139745 x66 +167.604162223362 x67 +64.7536433868776 x68 +8.16042612171761 x69
      +10.2273717831115 x70 +60.953335122476 x71 +41.8184227155612 x72 +22.2489454782538 x73 +1.43652116651102 x74
      +51.8968095436598 x75 +53.5363860803294 x76 +15.0127973325168 x77 +25.1942258831176 x78 +19.550192360419 x79
      +213.380644044426 x80 +32.5893763464299 x81 +93.7498613989967 x82 +198.129111955878 x83 +234.987855806709 x84
      +45.0347710132678 x85 +52.9259596825619 x86 +217.450981987508 x87 +161.047720467411 x88 +208.184300043821 x89
      +123.81284479653 x90 +149.049654761208 x91 +125.855134492105 x92 +99.2466150554856 x93 +159.540057015017 x94
      +137.878496187294 x95 +108.176763123324 x96 +170.931577561398 x97 +52.7079638337133 x98 +111.601278942451 x99
      +175.259851911779 x100 +136.53570788356 x101 +59.8464134003435 x102 +187.479870773305 x103 +175.004764470864 x104
      +77.8076019291791 x105 +140.162073131011 x106 +133.237118902175 x107 +162.763914067714 x108 +189.748511674384 x109
      +168.479497262022 x110 +117.782843047286 x111 +7.08706191999876 x112 +173.247627022216 x113 +179.458076065361 x114
      +46.5026308063144 x115 +110.58950854708 x116 +144.606840076167 x117 +137.40273525515 x118 +178.806647306225 x119
      +69.5246095511555 x120 +254.748792672509 x121 +216.032222106175 x122 +14.5548722534895 x123 +119.662233261076 x124
      +243.583591553092 x125 +207.08944148491 x126 +176.663515786297 x127 +36.7471769710943 x128 +30.3011401504887 x129
      +91.9332865137157 x130 +205.269032815992 x131 +108.633942671832 x132 +112.295177364108 x133 +106.050714837449 x134
      +154.907987820153 x135 +172.798893240157 x136 +91.9850431674849 x137 +83.274576215203 x138 +113.51608694154 x139
      +12.7967013622854 x140 +284.812845466788 x141 +203.351420268383 x142 +74.3720235649553 x143 +36.1488283991289 x144
      +248.243321970093 x145 +244.215140300427 x146 +101.459483822323 x147 +90.819920240849 x148 +61.6439351587076 x149
      +19.5595793113962 x150 +35.6294970519868 x151 +22.6683587412572 x152 +19.0236186808265 x153 +25.1988499122297 x154
      +28.9052563630494 x155 +28.3039567718768 x156 +25.8520317855298 x157 +10.9504492831615 x158 +20.386133546884 x159
      +37.3077116206021 x160 +156.636786670964 x161 +97.1448364277746 x162 +59.470452904571 x163 +47.0278562845916 x164
      +127.439711309084 x165 +132.680781955399 x166 +54.34711745769 x167 +50.5440840622481 x168 +57.2314671300456 x169
      +59.7689029508313 x170 +133.850043097133 x171 +66.0274780102487 x172 +78.5520085890267 x173 +61.3512007335557 x174
      +98.2536024663887 x175 +116.010081348469 x176 +41.9806598571237 x177 +64.1462515944495 x178 +77.7137480861762 x179
      +9.84235419517675 x180 +150.497044965907 x181 +115.353395411585 x182 +24.4062625638953 x183 +35.4061187267079 x184
      +136.219158877611 x185 +127.049309744637 x186 +71.4332815648086 x187 +38.9588558222943 x188 +17.0003753282237 x189
      +68.2852126682034 x190 +261.553673367652 x191 +165.527146708433 x192 +118.810410018608 x193 +37.2940305956017 x194
      +213.596497057783 x195 +232.381869934745 x196 +34.4551618897612 x197 +122.551068279928 x198 +109.122334977779 x199
      +15.5955532316942 x200 +30.8776293608284 x201 +26.3336107110607 x202 +10.033038675511 x203 +22.4476824293574 x204
      +29.4048398876201 x205 +23.7587252352998 x206 +27.3497166772005 x207 +2.43018362475893 x208 +12.2386789907666 x209
Subject to
 c0: +1 x10 +1 x11 +1 x12 +1 x13 +1 x14 +1 x15 +1 x16 +1 x17 +1 x18 +1 x19 >= +1
 c1: +1 x20 +1 x21 +1 x22 +1 x23 +1 x24 +1 x25 +1 x26 +1 x27 +1 x28 +1 x29 >= +1
 c2: +1 x30 +1 x31 +1 x32 +1 x33 +1 x34 +1 x35 +1 x36 +1 x37 +1 x38 +1 x39 >= +1
 c3: +1 x40 +1 x41 +1 x42 +1 x43 +1 x44 +1 x45 +1 x46 +1 x47 +1 x48 +1 x49 >= +1
 c4: +1 x50 +1 x51 +1 x52 +1 x53 +1 x54 +1 x55 +1 x56 +1 x57 +1 x58 +1 x59 >= +1
 c5: +1 x60 +1 x61 +1 x62 +1 x63 +1 x64 +1 x65 +1 x66 +1 x67 +1 x68 +1 x69 >= +1
 c6: +1 x70 +1 x71 +1 x72 +1 x73 +1 x74 +1 x75 +1 x76 +1 x77 +1 x78 +1 x79 >= +1
 c7: +1 x80 +1 x81 +1 x82 +1 x83 +1 x84 +1 x85 +1 x86 +1 x87 +1 x88 +1 x89 >= +1
 c8: +1 x90 +1 x91 +1 x92 +1 x93 +1 x94 +1 x95 +1 x96 +1 x97 +1 x98 +1 x99 >= +1
 c9: +1 x100 +1 x101 +1 x102 +1 x103 +1 x104 +1 x105 +1 x106 +1 x107 +1 x108 +1 x109 >= +1
 c10: +1 x110 +1 x111 +1 x112 +1 x113 +1 x114 +1 x115 +1 x116 +1 x117 +1 x118 +1 x119 >= +1
 c11: +1 x120 +1 x121 +1 x122 +1 x123 +1 x124 +1 x125 +1 x126 +1 x127 +1 x128 +1 x129 >= +1
 c12: +1 x130 +1 x131 +1 x132 +1 x133 +1 x134 +1 x135 +1 x136 +1 x137 +1 x138 +1 x139 >= +1
 c13: +1 x140 +1 x141 +1 x142 +1 x143 +1 x144 +1 x145 +1 x146 +1 x147 +1 x148 +1 x149 >= +1
 c14: +1 x150 +1 x151 +1 x152 +1 x153 +1 x154 +1 x155 +1 x156 +1 x157 +1 x158 +1 x159 >= +1
 c15: +1 x160 +1 x161 +1 x162 +1 x163 +1 x164 +1 x165 +1 x166 +1 x167 +1 x168 +1 x169 >= +1
 c16: +1 x170 +1 x171 +1 x172 +1 x173 +1 x174 +1 x175 +1 x176 +1 x177 +1 x178 +1 x179 >= +1
 c17: +1 x180 +1 x181 +1 x182 +1 x183 +1 x184 +1 x185 +1 x186 +1 x187 +1 x188 +1 x189 >= +1
 c18: +1 x190 +1 x191 +1 x192 +1 x193 +1 x194 +1 x195 +1 x196 +1 x197 +1 x198 +1 x199 >= +1
 c19: +1 x200 +1 x201 +1 x202 +1 x203 +1 x204 +1 x205 +1 x206 +1 x207 +1 x208 +1 x209 >= +1
 c20: +27 x10 +23 x20 +12 x30 +11 x40 +9 x50 +34 x60 +6 x70 +24 x80 +30 x90 +19 x100 +25 x110 +33 x120
  +30 x130 +31 x140 +6 x150 +20 x160 +18 x170 +17 x180 +26 x190 +5 x200 -301 x0 <= +0
 c21: +27 x11 +23 x21 +12 x31 +11 x41 +9 x51 +34 x61 +6 x71 +24 x81 +30 x91 +19 x101 +25 x111 +33 x121
  +30 x131 +31 x141 +6 x151 +20 x161 +18 x171 +17 x181 +26 x191 +5 x201 -147 x1 <= +0
 c22: +27 x12 +23 x22 +12 x32 +11 x42 +9 x52 +34 x62 +6 x72 +24 x82 +30 x92 +19 x102 +25 x112 +33 x122
  +30 x132 +31 x142 +6 x152 +20 x162 +18 x172 +17 x182 +26 x192 +5 x202 -313 x2 <= +0
 c23: +27 x13 +23 x23 +12 x33 +11 x43 +9 x53 +34 x63 +6 x73 +24 x83 +30 x93 +19 x103 +25 x113 +33 x123
  +30 x133 +31 x143 +6 x153 +20 x163 +18 x173 +17 x183 +26 x193 +5 x203 -317 x3 <= +0
 c24: +27 x14 +23 x24 +12 x34 +11 x44 +9 x54 +34 x64 +6 x74 +24 x84 +30 x94 +19 x104 +25 x114 +33 x124
  +30 x134 +31 x144 +6 x154 +20 x164 +18 x174 +17 x184 +26 x194 +5 x204 -195 x4 <= +0
 c25: +27 x15 +23 x25 +12 x35 +11 x45 +9 x55 +34 x65 +6 x75 +24 x85 +30 x95 +19 x105 +25 x115 +33 x125
  +30 x135 +31 x145 +6 x155 +20 x165 +18 x175 +17 x185 +26 x195 +5 x205 -125 x5 <= +0
 c26: +27 x16 +23 x26 +12 x36 +11 x46 +9 x56 +34 x66 +6 x76 +24 x86 +30 x96 +19 x106 +25 x116 +33 x126
  +30 x136 +31 x146 +6 x156 +20 x166 +18 x176 +17 x186 +26 x196 +5 x206 -43 x6 <= +0
 c27: +27 x17 +23 x27 +12 x37 +11 x47 +9 x57 +34 x67 +6 x77 +24 x87 +30 x97 +19 x107 +25 x117 +33 x127
  +30 x137 +31 x147 +6 x157 +20 x167 +18 x177 +17 x187 +26 x197 +5 x207 -150 x7 <= +0
 c28: +27 x18 +23 x28 +12 x38 +11 x48 +9 x58 +34 x68 +6 x78 +24 x88 +30 x98 +19 x108 +25 x118 +33 x128
  +30 x138 +31 x148 +6 x158 +20 x168 +18 x178 +17 x188 +26 x198 +5 x208 -218 x8 <= +0
 c29: +27 x19 +23 x29 +12 x39 +11 x49 +9 x59 +34 x69 +6 x79 +24 x89 +30 x99 +19 x109 +25 x119 +33 x129
  +30 x139 +31 x149 +6 x159 +20 x169 +18 x179 +17 x189 +26 x199 +5 x209 -222 x9 <= +0
 c30: +301 x0 +147 x1 +313 x2 +317 x3 +195 x4 +125 x5 +43 x6 +150 x7 +218 x8 +222 x9 >= +406
 c31: +1 x10 -1 x0 <= +0
 c32: +1 x11 -1 x1 <= +0
 c33: +1 x12 -1 x2 <= +0
 c34: +1 x13 -1 x3 <= +0
 c35: +1 x14 -1 x4 <= +0
 c36: +1 x15 -1 x5 <= +0
 c37: +1 x16 -1 x6 <= +0
 c38: +1 x17 -1 x7 <= +0
 c39: +1 x18 -1 x8 <= +0
 c40: +1 x19 -1 x9 <= +0
 c41: +1 x20 -1 x0 <= +0
 c42: +1 x21 -1 x1 <= +0
 c43: +1 x22 -1 x2 <= +0
 c44: +1 x23 -1 x3 <= +0
 c45: +1 x24 -1 x4 <= +0
 c46: +1 x25 -1 x5 <= +0
 c47: +1 x26 -1 x6 <= +0
 c48: +1 x27 -1 x7 <= +0
 c49: +1 x28 -1 x8 <= +0
 c50: +1 x29 -1 x9 <= +0
 c51: +1 x30 -1 x0 <= +0
 c52: +1 x31 -1 x1 <= +0
 c53: +1 x32 -1 x2 <= +0
 c54: +1 x33 -1 x3 <= +0
 c55: +1 x34 -1 x4 <= +0
 c56: +1 x35 -1 x5 <= +0
 c57: +1 x36 -1 x6 <= +0
 c58: +1 x37 -1 x7 <= +0
 c59: +1 x38 -1 x8 <= +0
 c60: +1 x39 -1 x9 <= +0
 c61: +1 x40 -1 x0 <= +0
 c62: +1 x41 -1 x1 <= +0
 c63: +1 x42 -1 x2 <= +0
 c64: +1 x43 -1 x3 <= +0
 c65: +1 x44 -1 x4 <= +0
 c66: +1 x45 -1 x5 <= +0
 c67: +1 x46 -1 x6 <= +0
 c68: +1 x47 -1 x7 <= +0
 c69: +1 x48 -1 x8 <= +0
 c70: +1 x49 -1 x9 <= +0
 c71: +1 x50 -1 x0 <= +0
 c72: +1 x51 -1 x1 <= +0
 c73: +1 x52 -1 x2 <= +0
 c74: +1 x53 -1 x3 <= +0
 c75: +1 x54 -1 x4 <= +0
 c76: +1 x55 -1 x5 <= +0
 c77: +1 x56 -1 x6 <= +0
 c78: +1 x57 -1 x7 <= +0
 c79: +1 x58 -1 x8 <= +0
 c80: +1 x59 -1 x9 <= +0
 c81: +1 x60 -1 x0 <= +0
 c82: +1 x61 -1 x1 <= +0
 c83: +1 x62 -1 x2 <= +0
 c84: +1 x63 -1 x3 <= +0
 c85: +1 x64 -1 x4 <= +0
 c86: +1 x65 -1 x5 <= +0
 c87: +1 x66 -1 x6 <= +0
 c88: +1 x67 -1 x7 <= +0
 c89: +1 x68 -1 x8 <= +0
 c90: +1 x69 -1 x9 <= +0
 c91: +1 x70 -1 x0 <= +0
 c92: +1 x71 -1 x1 <= +0
 c93: +1 x72 -1 x2 <= +0
 c94: +1 x73 -1 x3 <= +0
 c95: +1 x74 -1 x4 <= +0
 c96: +1 x75 -1 x5 <= +0
 c97: +1 x76 -1 x6 <= +0
 c98: +1 x77 -1 x7 <= +0
 c99: +1 x78 -1 x8 <= +0
 c100: +1 x79 -1 x9 <= +0
 c101: +1 x80 -1 x0 <= +0
 c102: +1 x81 -1 x1 <= +0
 c103: +1 x82 -1 x2 <= +0
 c104: +1 x83 -1 x3 <= +0
 c105: +1 x84 -1 x4 <= +0
 c106: +1 x85 -1 x5 <= +0
 c107: +1 x86 -1 x6 <= +0
 c108: +1 x87 -1 x7 <= +0
 c109: +1 x88 -1 x8 <= +0
 c110: +1 x89 -1 x9 <= +0
 c111: +1 x90 -1 x0 <= +0
 c112: +1 x91 -1 x1 <= +0
 c113: +1 x92 -1 x2 <= +0
 c114: +1 x93 -1 x3 <= +0
 c115: +1 x94 -1 x4 <= +0
 c116: +1 x95 -1 x5 <= +0
 c117: +1 x96 -1 x6 <= +0
 c118: +1 x97 -1 x7 <= +0
 c119: +1 x98 -1 x8 <= +0
 c120: +1 x99 -1 x9 <= +0
 c121: +1 x100 -1 x0 <= +0
 c122: +1 x101 -1 x1 <= +0
 c123: +1 x102 -1 x2 <= +0
 c124: +1 x103 -1 x3 <= +0
 c125: +1 x104 -1 x4 <= +0
 c126: +1 x105 -1 x5 <= +0
 c127: +1 x106 -1 x6 <= +0
 c128: +1 x107 -1 x7 <= +0
 c129: +1 x108 -1 x8 <= +0
 c130: +1 x109 -1 x9 <= +0
 c131: +1 x110 -1 x0 <= +0
 c132: +1 x111 -1 x1 <= +0
 c133: +1 x112 -1 x2 <= +0
 c134: +1 x113 -1 x3 <= +0
 c135: +1 x114 -1 x4 <= +0
 c136: +1 x115 -1 x5 <= +0
 c137: +1 x116 -1 x6 <= +0
 c138: +1 x117 -1 x7 <= +0
 c139: +1 x118 -1 x8 <= +0
 c140: +1 x119 -1 x9 <= +0
 c141: +1 x120 -1 x0 <= +0
 c142: +1 x121 -1 x1 <= +0
 c143: +1 x122 -1 x2 <= +0
 c144: +1 x123 -1 x3 <= +0
 c145: +1 x124 -1 x4 <= +0
 c146: +1 x125 -1 x5 <= +0
 c147: +1 x126 -1 x6 <= +0
 c148: +1 x127 -1 x7 <= +0
 c149: +1 x128 -1 x8 <= +0
 c150: +1 x129 -1 x9 <= +0
 c151: +1 x130 -1 x0 <= +0
 c152: +1 x131 -1 x1 <= +0
 c153: +1 x132 -1 x2 <= +0
 c154: +1 x133 -1 x3 <= +0
 c155: +1 x134 -1 x4 <= +0
 c156: +1 x135 -1 x5 <= +0
 c157: +1 x136 -1 x6 <= +0
 c158: +1 x137 -1 x7 <= +0
 c159: +1 x138 -1 x8 <= +0
 c160: +1 x139 -1 x9 <= +0
 c161: +1 x140 -1 x0 <= +0
 c162: +1 x141 -1 x1 <= +0
 c163: +1 x142 -1 x2 <= +0
 c164: +1 x143 -1 x3 <= +0
 c165: +1 x144 -1 x4 <= +0
 c166: +1 x145 -1 x5 <= +0
 c167: +1 x146 -1 x6 <= +0
 c168: +1 x147 -1 x7 <= +0
 c169: +1 x148 -1 x8 <= +0
 c170: +1 x149 -1 x9 <= +0
 c171: +1 x150 -1 x0 <= +0
 c172: +1 x151 -1 x1 <= +0
 c173: +1 x152 -1 x2 <= +0
 c174: +1 x153 -1 x3 <= +0
 c175: +1 x154 -1 x4 <= +0
 c176: +1 x155 -1 x5 <= +0
 c177: +1 x156 -1 x6 <= +0
 c178: +1 x157 -1 x7 <= +0
 c179: +1 x158 -1 x8 <= +0
 c180: +1 x159 -1 x9 <= +0
 c181: +1 x160 -1 x0 <= +0
 c182: +1 x161 -1 x1 <= +0
 c183: +1 x162 -1 x2 <= +0
 c184: +1 x163 -1 x3 <= +0
 c185: +1 x164 -1 x4 <= +0
 c186: +1 x165 -1 x5 <= +0
 c187: +1 x166 -1 x6 <= +0
 c188: +1 x167 -1 x7 <= +0
 c189: +1 x168 -1 x8 <= +0
 c190: +1 x169 -1 x9 <= +0
 c191: +1 x170 -1 x0 <= +0
 c192: +1 x171 -1 x1 <= +0
 c193: +1 x172 -1 x2 <= +0
 c194: +1 x173 -1 x3 <= +0
 c195: +1 x174 -1 x4 <= +0
 c196: +1 x175 -1 x5 <= +0
 c197: +1 x176 -1 x6 <= +0
 c198: +1 x177 -1 x7 <= +0
 c199: +1 x178 -1 x8 <= +0
 c200: +1 x179 -1 x9 <= +0
 c201: +1 x180 -1 x0 <= +0
 c202: +1 x181 -1 x1 <= +0
 c203: +1 x182 -1 x2 <= +0
 c204: +1 x183 -1 x3 <= +0
 c205: +1 x184 -1 x4 <= +0
 c206: +1 x185 -1 x5 <= +0
 c207: +1 x186 -1 x6 <= +0
 c208: +1 x187 -1 x7 <= +0
 c209: +1 x188 -1 x8 <= +0
 c210: +1 x189 -1 x9 <= +0
 c211: +1 x190 -1 x0 <= +0
 c212: +1 x191 -1 x1 <= +0
 c213: +1 x192 -1 x2 <= +0
 c214: +1 x193 -1 x3 <= +0
 c215: +1 x194 -1 x4 <= +0
 c216: +1 x195 -1 x5 <= +0
 c217: +1 x196 -1 x6 <= +0
 c218: +1 x197 -1 x7 <= +0
 c219: +1 x198 -1 x8 <= +0
 c220: +1 x199 -1 x9 <= +0
 c221: +1 x200 -1 x0 <= +0
 c222: +1 x201 -1 x1 <= +0
 c223: +1 x202 -1 x2 <= +0
 c224: +1 x203 -1 x3 <= +0
 c225: +1 x204 -1 x4 <= +0
 c226: +1 x205 -1 x5 <= +0
 c227: +1 x206 -1 x6 <= +0
 c228: +1 x207 -1 x7 <= +0
 c229: +1 x208 -1 x8 <= +0
 c230: +1 x209 -1 x9 <= +0
Bounds
 0 <= x0 <= 1
 0 <= x1 <= 1
 0 <= x2 <= 1
 0 <= x3 <= 1
 0 <= x4 <= 1
 0 <= x5 <= 1
 0 <= x6 <= 1
 0 <= x7 <= 1
 0 <= x8 <= 1
 0 <= x9 <= 1
 0 <= x10 <= 1
 0 <= x11 <= 1
 0 <= x12 <= 1
 0 <= x13 <= 1
 0 <= x14 <= 1
 0 <= x15 <= 1
 0 <= x16 <= 1
 0 <= x17 <= 1
 0 <= x18 <= 1
 0 <= x19 <= 1
 0 <= x20 <= 1
 0 <= x21 <= 1
 0 <= x22 <= 1
 0 <= x23 <= 1
 0 <= x24 <= 1
 0 <= x25 <= 1
 0 <= x26 <= 1
 0 <= x27 <= 1
 0 <= x28 <= 1
 0 <= x29 <= 1
 0 <= x30 <= 1
 0 <= x31 <= 1
 0 <= x32 <= 1
 0 <= x33 <= 1
 0 <= x34 <= 1
 0 <= x35 <= 1
 0 <= x36 <= 1
 0 <= x37 <= 1
 0 <= x38 <= 1
 0 <= x39 <= 1
 0 <= x40 <= 1
 0 <= x41 <= 1
 0 <= x42 <= 1
 0 <= x43 <= 1
 0 <= x44 <= 1
 0 <= x45 <= 1
 0 <= x46 <= 1
 0 <= x47 <= 1
 0 <= x48 <= 1
 0 <= x49 <= 1
 0 <= x50 <= 1
 0 <= x51 <= 1
 0 <= x52 <= 1
 0 <= x53 <= 1
 0 <= x54 <= 1
 0 <= x55 <= 1
 0 <= x56 <= 1
 0 <= x57 <= 1
 0 <= x58 <= 1
 0 <= x59 <= 1
 0 <= x60 <= 1
 0 <= x61 <= 1
 0 <= x62 <= 1
 0 <= x63 <= 1
 0 <= x64 <= 1
 0 <= x65 <= 1
 0 <= x66 <= 1
 0 <= x67 <= 1
 0 <= x68 <= 1
 0 <= x69 <= 1
 0 <= x70 <= 1
 0 <= x71 <= 1
 0 <= x72 <= 1
 0 <= x73 <= 1
 0 <= x74 <= 1
 0 <= x75 <= 1
 0 <= x76 <= 1
 0 <= x77 <= 1
 0 <= x78 <= 1
 0 <= x79 <= 1
 0 <= x80 <= 1
 0 <= x81 <= 1
 0 <= x82 <= 1
 0 <= x83 <= 1
 0 <= x84 <= 1
 0 <= x85 <= 1
 0 <= x86 <= 1
 0 <= x87 <= 1
 0 <= x88 <= 1
 0 <= x89 <= 1
 0 <= x90 <= 1
 0 <= x91 <= 1
 0 <= x92 <= 1
 0 <= x93 <= 1
 0 <= x94 <= 1
 0 <= x95 <= 1
 0 <= x96 <= 1
 0 <= x97 <= 1
 0 <= x98 <= 1
 0 <= x99 <= 1
 0 <= x100 <= 1
 0 <= x101 <= 1
 0 <= x102 <= 1
 0 <= x103 <= 1
 0 <= x104 <= 1
 0 <= x105 <= 1
 0 <= x106 <= 1
 0 <= x107 <= 1
 0 <= x108 <= 1
 0 <= x109 <= 1
 0 <= x110 <= 1
 0 <= x111 <= 1
 0 <= x112 <= 1
 0 <= x113 <= 1
 0 <= x114 <= 1
 0 <= x115 <= 1
 0 <= x116 <= 1
 0 <= x117 <= 1
 0 <= x118 <= 1
 0 <= x119 <= 1
 0 <= x120 <= 1
 0 <= x121 <= 1
 0 <= x122 <= 1
 0 <= x123 <= 1
 0 <= x124 <= 1
 0 <= x125 <= 1
 0 <= x126 <= 1
 0 <= x127 <= 1
 0 <= x128 <= 1
 0 <= x129 <= 1
 0 <= x130 <= 1
 0 <= x131 <= 1
 0 <= x132 <= 1
 0 <= x133 <= 1
 0 <= x134 <= 1
 0 <= x135 <= 1
 0 <= x136 <= 1
 0 <= x137 <= 1
 0 <= x138 <= 1
 0 <= x139 <= 1
 0 <= x140 <= 1
 0 <= x141 <= 1
 0 <= x142 <= 1
 0 <= x143 <= 1
 0 <= x144 <= 1
 0 <= x145 <= 1
 0 <= x146 <= 1
 0 <= x147 <= 1
 0 <= x148 <= 1
 0 <= x149 <= 1
 0 <= x150 <= 1
 0 <= x151 <= 1
 0 <= x152 <= 1
 0 <= x153 <= 1
 0 <= x154 <= 1
 0 <= x155 <= 1
 0 <= x156 <= 1
 0 <= x157 <= 1
 0 <= x158 <= 1
 0 <= x159 <= 1
 0 <= x160 <= 1
 0 <= x161 <= 1
 0 <= x162 <= 1
 0 <= x163 <= 1
 0 <= x164 <= 1
 0 <= x165 <= 1
 0 <= x166 <= 1
 0 <= x167 <= 1
 0 <= x168 <= 1
 0 <= x169 <= 1
 0 <= x170 <= 1
 0 <= x171 <= 1
 0 <= x172 <= 1
 0 <= x173 <= 1
 0 <= x174 <= 1
 0 <= x175 <= 1
 0 <= x176 <= 1
 0 <= x177 <= 1
 0 <= x178 <= 1
 0 <= x179 <= 1
 0 <= x180 <= 1
 0 <= x181 <= 1
 0 <= x182 <= 1
 0 <= x183 <= 1
 0 <= x184 <= 1
 0 <= x185 <= 1
 0 <= x186 <= 1
 0 <= x187 <= 1
 0 <= x188 <= 1
 0 <= x189 <= 1
 0 <= x190 <= 1
 0 <= x191 <= 1
 0 <= x192 <= 1
 0 <= x193 <= 1
 0 <= x194 <= 1
 0 <= x195 <= 1
 0 <= x196 <= 1
 0 <= x197 <= 1
 0 <= x198 <= 1
 0 <= x199 <= 1
 0 <= x200 <= 1
 0 <= x201 <= 1
 0 <= x202 <= 1
 0 <= x203 <= 1
 0 <= x204 <= 1
 0 <= x205 <= 1
 0 <= x206 <= 1
 0 <= x207 <= 1
 0 <= x208 <= 1
 0 <= x209 <= 1
Binaries
 x0 x1 x2 x3 x4 x5 x6 x7 x8 x9 x10 x11 x12 x13 x14 x15 x16 x17 x18 x19 x20 x21 x22 x23 x24 x25 x26 x27
 x28 x29 x30 x31 x32 x33 x34 x35 x36 x37 x38 x39 x40 x41 x42 x43 x44 x45 x46 x47 x48 x49 x50 x51 x52 x53
 x54 x55 x56 x57 x58 x59 x60 x61 x62 x63 x64 x65 x66 x67 x68 x69 x70 x71 x72 x73 x74 x75 x76 x77 x78 x79
 x80 x81 x82 x83 x84 x85 x86 x87 x88 x89 x90 x91 x92 x93 x94 x95 x96 x97 x98 x99 x100 x101 x102 x103 x104
 x105 x106 x107 x108 x109 x110 x111 x112 x113 x114 x115 x116 x117 x118 x119 x120 x121 x122 x123 x124 x125
 x126 x127 x128 x129 x130 x131 x132 x133 x134 x135 x136 x137 x138 x139 x140 x141 x142 x143 x144 x145 x146
 x147 x148 x149 x150 x151 x152 x153 x154 x155 x156 x157 x158 x159 x160 x161 x162 x163 x164 x165 x166 x167
 x168 x169 x170 x171 x172 x173 x174 x175 x176 x177 x178 x179 x180 x181 x182 x183 x184 x185 x186 x187 x188
 x189 x190 x191 x192 x193 x194 x195 x196 x197 x198 x199 x200 x201 x202 x203 x204 x205 x206 x207 x208 x209
End
